p cnf 42 602
1 2 3 0
4 5 6 0
7 8 9 0
10 11 12 0
13 14 15 0
16 17 18 0
19 20 21 0
22 23 24 0
25 26 27 0
28 29 30 0
31 32 33 0
34 35 36 0
37 38 39 0
40 41 42 0
-1 -2 0
-1 -3 0
-2 -3 0
-4 -5 0
-4 -6 0
-5 -6 0
-7 -8 0
-7 -9 0
-8 -9 0
-10 -11 0
-10 -12 0
-11 -12 0
-13 -14 0
-13 -15 0
-14 -15 0
-16 -17 0
-16 -18 0
-17 -18 0
-19 -20 0
-19 -21 0
-20 -21 0
-22 -23 0
-22 -24 0
-23 -24 0
-25 -26 0
-25 -27 0
-26 -27 0
-28 -29 0
-28 -30 0
-29 -30 0
-31 -32 0
-31 -33 0
-32 -33 0
-34 -35 0
-34 -36 0
-35 -36 0
-37 -38 0
-37 -39 0
-38 -39 0
-40 -41 0
-40 -42 0
-41 -42 0
-1 4 5 6 0
-2 4 5 6 0
-3 4 5 6 0
-1 8 9 0
-2 7 9 0
-3 7 8 0
-1 11 12 0
-2 10 12 0
-3 10 11 0
-1 14 15 0
-2 13 15 0
-3 13 14 0
-1 16 17 18 0
-2 16 17 18 0
-3 16 17 18 0
-1 19 20 21 0
-2 19 20 21 0
-3 19 20 21 0
-1 23 24 0
-2 22 24 0
-3 22 23 0
-1 25 26 27 0
-2 25 26 27 0
-3 25 26 27 0
-1 28 29 30 0
-2 28 29 30 0
-3 28 29 30 0
-1 32 33 0
-2 31 33 0
-3 31 32 0
-1 34 35 36 0
-2 34 35 36 0
-3 34 35 36 0
-1 38 39 0
-2 37 39 0
-3 37 38 0
-1 41 42 0
-2 40 42 0
-3 40 41 0
-4 1 2 3 0
-5 1 2 3 0
-6 1 2 3 0
-4 7 8 9 0
-5 7 8 9 0
-6 7 8 9 0
-4 10 11 12 0
-5 10 11 12 0
-6 10 11 12 0
-4 14 15 0
-5 13 15 0
-6 13 14 0
-4 16 17 18 0
-5 16 17 18 0
-6 16 17 18 0
-4 20 21 0
-5 19 21 0
-6 19 20 0
-4 22 23 24 0
-5 22 23 24 0
-6 22 23 24 0
-4 25 26 27 0
-5 25 26 27 0
-6 25 26 27 0
-4 28 29 30 0
-5 28 29 30 0
-6 28 29 30 0
-4 32 33 0
-5 31 33 0
-6 31 32 0
-4 34 35 36 0
-5 34 35 36 0
-6 34 35 36 0
-4 37 38 39 0
-5 37 38 39 0
-6 37 38 39 0
-4 40 41 42 0
-5 40 41 42 0
-6 40 41 42 0
-7 2 3 0
-8 1 3 0
-9 1 2 0
-7 4 5 6 0
-8 4 5 6 0
-9 4 5 6 0
-7 10 11 12 0
-8 10 11 12 0
-9 10 11 12 0
-7 13 14 15 0
-8 13 14 15 0
-9 13 14 15 0
-7 16 17 18 0
-8 16 17 18 0
-9 16 17 18 0
-7 19 20 21 0
-8 19 20 21 0
-9 19 20 21 0
-7 22 23 24 0
-8 22 23 24 0
-9 22 23 24 0
-7 25 26 27 0
-8 25 26 27 0
-9 25 26 27 0
-7 28 29 30 0
-8 28 29 30 0
-9 28 29 30 0
-7 31 32 33 0
-8 31 32 33 0
-9 31 32 33 0
-7 35 36 0
-8 34 36 0
-9 34 35 0
-7 38 39 0
-8 37 39 0
-9 37 38 0
-7 41 42 0
-8 40 42 0
-9 40 41 0
-10 2 3 0
-11 1 3 0
-12 1 2 0
-10 4 5 6 0
-11 4 5 6 0
-12 4 5 6 0
-10 7 8 9 0
-11 7 8 9 0
-12 7 8 9 0
-10 13 14 15 0
-11 13 14 15 0
-12 13 14 15 0
-10 17 18 0
-11 16 18 0
-12 16 17 0
-10 19 20 21 0
-11 19 20 21 0
-12 19 20 21 0
-10 22 23 24 0
-11 22 23 24 0
-12 22 23 24 0
-10 25 26 27 0
-11 25 26 27 0
-12 25 26 27 0
-10 29 30 0
-11 28 30 0
-12 28 29 0
-10 32 33 0
-11 31 33 0
-12 31 32 0
-10 34 35 36 0
-11 34 35 36 0
-12 34 35 36 0
-10 37 38 39 0
-11 37 38 39 0
-12 37 38 39 0
-10 40 41 42 0
-11 40 41 42 0
-12 40 41 42 0
-13 2 3 0
-14 1 3 0
-15 1 2 0
-13 5 6 0
-14 4 6 0
-15 4 5 0
-13 7 8 9 0
-14 7 8 9 0
-15 7 8 9 0
-13 10 11 12 0
-14 10 11 12 0
-15 10 11 12 0
-13 17 18 0
-14 16 18 0
-15 16 17 0
-13 19 20 21 0
-14 19 20 21 0
-15 19 20 21 0
-13 23 24 0
-14 22 24 0
-15 22 23 0
-13 26 27 0
-14 25 27 0
-15 25 26 0
-13 29 30 0
-14 28 30 0
-15 28 29 0
-13 31 32 33 0
-14 31 32 33 0
-15 31 32 33 0
-13 34 35 36 0
-14 34 35 36 0
-15 34 35 36 0
-13 38 39 0
-14 37 39 0
-15 37 38 0
-13 40 41 42 0
-14 40 41 42 0
-15 40 41 42 0
-16 1 2 3 0
-17 1 2 3 0
-18 1 2 3 0
-16 4 5 6 0
-17 4 5 6 0
-18 4 5 6 0
-16 7 8 9 0
-17 7 8 9 0
-18 7 8 9 0
-16 11 12 0
-17 10 12 0
-18 10 11 0
-16 14 15 0
-17 13 15 0
-18 13 14 0
-16 19 20 21 0
-17 19 20 21 0
-18 19 20 21 0
-16 22 23 24 0
-17 22 23 24 0
-18 22 23 24 0
-16 25 26 27 0
-17 25 26 27 0
-18 25 26 27 0
-16 28 29 30 0
-17 28 29 30 0
-18 28 29 30 0
-16 31 32 33 0
-17 31 32 33 0
-18 31 32 33 0
-16 35 36 0
-17 34 36 0
-18 34 35 0
-16 37 38 39 0
-17 37 38 39 0
-18 37 38 39 0
-16 40 41 42 0
-17 40 41 42 0
-18 40 41 42 0
-19 1 2 3 0
-20 1 2 3 0
-21 1 2 3 0
-19 5 6 0
-20 4 6 0
-21 4 5 0
-19 7 8 9 0
-20 7 8 9 0
-21 7 8 9 0
-19 10 11 12 0
-20 10 11 12 0
-21 10 11 12 0
-19 13 14 15 0
-20 13 14 15 0
-21 13 14 15 0
-19 16 17 18 0
-20 16 17 18 0
-21 16 17 18 0
-19 23 24 0
-20 22 24 0
-21 22 23 0
-19 25 26 27 0
-20 25 26 27 0
-21 25 26 27 0
-19 29 30 0
-20 28 30 0
-21 28 29 0
-19 32 33 0
-20 31 33 0
-21 31 32 0
-19 34 35 36 0
-20 34 35 36 0
-21 34 35 36 0
-19 37 38 39 0
-20 37 38 39 0
-21 37 38 39 0
-19 41 42 0
-20 40 42 0
-21 40 41 0
-22 2 3 0
-23 1 3 0
-24 1 2 0
-22 4 5 6 0
-23 4 5 6 0
-24 4 5 6 0
-22 7 8 9 0
-23 7 8 9 0
-24 7 8 9 0
-22 10 11 12 0
-23 10 11 12 0
-24 10 11 12 0
-22 14 15 0
-23 13 15 0
-24 13 14 0
-22 16 17 18 0
-23 16 17 18 0
-24 16 17 18 0
-22 20 21 0
-23 19 21 0
-24 19 20 0
-22 25 26 27 0
-23 25 26 27 0
-24 25 26 27 0
-22 29 30 0
-23 28 30 0
-24 28 29 0
-22 31 32 33 0
-23 31 32 33 0
-24 31 32 33 0
-22 35 36 0
-23 34 36 0
-24 34 35 0
-22 37 38 39 0
-23 37 38 39 0
-24 37 38 39 0
-22 40 41 42 0
-23 40 41 42 0
-24 40 41 42 0
-25 1 2 3 0
-26 1 2 3 0
-27 1 2 3 0
-25 4 5 6 0
-26 4 5 6 0
-27 4 5 6 0
-25 7 8 9 0
-26 7 8 9 0
-27 7 8 9 0
-25 10 11 12 0
-26 10 11 12 0
-27 10 11 12 0
-25 14 15 0
-26 13 15 0
-27 13 14 0
-25 16 17 18 0
-26 16 17 18 0
-27 16 17 18 0
-25 19 20 21 0
-26 19 20 21 0
-27 19 20 21 0
-25 22 23 24 0
-26 22 23 24 0
-27 22 23 24 0
-25 29 30 0
-26 28 30 0
-27 28 29 0
-25 31 32 33 0
-26 31 32 33 0
-27 31 32 33 0
-25 35 36 0
-26 34 36 0
-27 34 35 0
-25 38 39 0
-26 37 39 0
-27 37 38 0
-25 40 41 42 0
-26 40 41 42 0
-27 40 41 42 0
-28 1 2 3 0
-29 1 2 3 0
-30 1 2 3 0
-28 4 5 6 0
-29 4 5 6 0
-30 4 5 6 0
-28 7 8 9 0
-29 7 8 9 0
-30 7 8 9 0
-28 11 12 0
-29 10 12 0
-30 10 11 0
-28 14 15 0
-29 13 15 0
-30 13 14 0
-28 16 17 18 0
-29 16 17 18 0
-30 16 17 18 0
-28 20 21 0
-29 19 21 0
-30 19 20 0
-28 23 24 0
-29 22 24 0
-30 22 23 0
-28 26 27 0
-29 25 27 0
-30 25 26 0
-28 32 33 0
-29 31 33 0
-30 31 32 0
-28 34 35 36 0
-29 34 35 36 0
-30 34 35 36 0
-28 37 38 39 0
-29 37 38 39 0
-30 37 38 39 0
-28 41 42 0
-29 40 42 0
-30 40 41 0
-31 2 3 0
-32 1 3 0
-33 1 2 0
-31 5 6 0
-32 4 6 0
-33 4 5 0
-31 7 8 9 0
-32 7 8 9 0
-33 7 8 9 0
-31 11 12 0
-32 10 12 0
-33 10 11 0
-31 13 14 15 0
-32 13 14 15 0
-33 13 14 15 0
-31 16 17 18 0
-32 16 17 18 0
-33 16 17 18 0
-31 20 21 0
-32 19 21 0
-33 19 20 0
-31 22 23 24 0
-32 22 23 24 0
-33 22 23 24 0
-31 25 26 27 0
-32 25 26 27 0
-33 25 26 27 0
-31 29 30 0
-32 28 30 0
-33 28 29 0
-31 34 35 36 0
-32 34 35 36 0
-33 34 35 36 0
-31 38 39 0
-32 37 39 0
-33 37 38 0
-31 40 41 42 0
-32 40 41 42 0
-33 40 41 42 0
-34 1 2 3 0
-35 1 2 3 0
-36 1 2 3 0
-34 4 5 6 0
-35 4 5 6 0
-36 4 5 6 0
-34 8 9 0
-35 7 9 0
-36 7 8 0
-34 10 11 12 0
-35 10 11 12 0
-36 10 11 12 0
-34 13 14 15 0
-35 13 14 15 0
-36 13 14 15 0
-34 17 18 0
-35 16 18 0
-36 16 17 0
-34 19 20 21 0
-35 19 20 21 0
-36 19 20 21 0
-34 23 24 0
-35 22 24 0
-36 22 23 0
-34 26 27 0
-35 25 27 0
-36 25 26 0
-34 28 29 30 0
-35 28 29 30 0
-36 28 29 30 0
-34 31 32 33 0
-35 31 32 33 0
-36 31 32 33 0
-34 38 39 0
-35 37 39 0
-36 37 38 0
-34 40 41 42 0
-35 40 41 42 0
-36 40 41 42 0
-37 2 3 0
-38 1 3 0
-39 1 2 0
-37 4 5 6 0
-38 4 5 6 0
-39 4 5 6 0
-37 8 9 0
-38 7 9 0
-39 7 8 0
-37 10 11 12 0
-38 10 11 12 0
-39 10 11 12 0
-37 14 15 0
-38 13 15 0
-39 13 14 0
-37 16 17 18 0
-38 16 17 18 0
-39 16 17 18 0
-37 19 20 21 0
-38 19 20 21 0
-39 19 20 21 0
-37 22 23 24 0
-38 22 23 24 0
-39 22 23 24 0
-37 26 27 0
-38 25 27 0
-39 25 26 0
-37 28 29 30 0
-38 28 29 30 0
-39 28 29 30 0
-37 32 33 0
-38 31 33 0
-39 31 32 0
-37 35 36 0
-38 34 36 0
-39 34 35 0
-37 41 42 0
-38 40 42 0
-39 40 41 0
-40 2 3 0
-41 1 3 0
-42 1 2 0
-40 4 5 6 0
-41 4 5 6 0
-42 4 5 6 0
-40 8 9 0
-41 7 9 0
-42 7 8 0
-40 10 11 12 0
-41 10 11 12 0
-42 10 11 12 0
-40 13 14 15 0
-41 13 14 15 0
-42 13 14 15 0
-40 16 17 18 0
-41 16 17 18 0
-42 16 17 18 0
-40 20 21 0
-41 19 21 0
-42 19 20 0
-40 22 23 24 0
-41 22 23 24 0
-42 22 23 24 0
-40 25 26 27 0
-41 25 26 27 0
-42 25 26 27 0
-40 29 30 0
-41 28 30 0
-42 28 29 0
-40 31 32 33 0
-41 31 32 33 0
-42 31 32 33 0
-40 34 35 36 0
-41 34 35 36 0
-42 34 35 36 0
-40 38 39 0
-41 37 39 0
-42 37 38 0
